(set-info :smt-lib-version 2.6)
(set-logic QF_S)
(set-info :source |
Generated by: Shaoke Cui
Generated on: 2025-04-10
Application: Using String Solvers to solve string matching problems
Target solver: Z3, Z3alpha, Z3-noodler
Benchmarks for string matching problem with wildcards, which needs to determine whether two strings containing two wildcards can match.
Use re.allchar and (re.* re.allchar) to represent wildcards.
Determine whether the two strings match by judging whether the result of re.inter is re.none.
|)
(set-info :license "https://creativecommons.org/licenses/by/4.0/")
(set-info :category "crafted")
(set-info :status unknown)
(assert (= re.none (re.inter  (re.++ (str.to_re "hxwgaaiv") re.allchar (str.to_re "ifqy") (re.* re.allchar) (str.to_re "tozvceaykqiogcuixumg") (re.* re.allchar) (str.to_re "ebzvswpflpyjemsvdeckopuympqf") (re.* re.allchar) (str.to_re "ecaodabylqwu") re.allchar (str.to_re "qmkaeu") re.allchar (str.to_re "dccsoagacwumxvgxseswrkgdnryazzgo") re.allchar (str.to_re "zsnkk") re.allchar (str.to_re "qsbugshzznkyqetadj") re.allchar (str.to_re "fyo") re.allchar (re.* re.allchar) (str.to_re "fwciijovosxu") (re.* re.allchar) (str.to_re "nifg") re.allchar (str.to_re "bn") re.allchar (str.to_re "vjsrgxnmizfgoyvgbd") (re.* re.allchar) (str.to_re "uqehc") re.allchar (str.to_re "dfezvfdqovxvqdmiabewkvyo") re.allchar (str.to_re "jxadijaenzzhyoskfhkdhysq") (re.* re.allchar) (str.to_re "c") (re.* re.allchar) (str.to_re "wm") (re.* re.allchar) (str.to_re "ettjhleos") (re.* re.allchar) (str.to_re "vuyzfgc") re.allchar (str.to_re "brvitykt") (re.* re.allchar) (str.to_re "ysrkmlcvbppabdqv") (re.* re.allchar) (str.to_re "vfqkaepdnfhrppmgbqvbfwgy") re.allchar (str.to_re "tvshrlgqimmqsqbtdvpspxzcvagfxplqtatcmvgayxphestlhwwzu") re.allchar (str.to_re "jdklrmavpdhrdsyz") (re.* re.allchar) (str.to_re "tngmtjciuohxp") re.allchar (str.to_re "wbli") re.allchar (str.to_re "kponoyrakqzastfvwnaogriukfgx") (re.* re.allchar) (str.to_re "wemrhkt") re.allchar (str.to_re "graxvep") (re.* re.allchar) (str.to_re "ofblxw") re.allchar (str.to_re "cgsggthcsfunbazgwzrelgkjy") (re.* re.allchar) (str.to_re "u") re.allchar (str.to_re "hqospdqqxuykjlhqatwekysrbubzgrtkupxqitqxxx") re.allchar (str.to_re "qoudsplrlcgdgihzhwzaynasyr") (re.* re.allchar) (str.to_re "gny") re.allchar (re.* re.allchar) (str.to_re "nhfonmqcfedlwbgwezedqpiiodmcsh") re.allchar (str.to_re "i") (re.* re.allchar) (str.to_re "ewcrlbxkitdyerrsyjnu") (re.* re.allchar) (str.to_re "yoq") re.allchar (str.to_re "jzkvh") (re.* re.allchar) (str.to_re "vasqpbes") re.allchar (str.to_re "hpvuaqixsvbqgdvojawk") re.allchar (str.to_re "idqyoiixnkmoib") re.allchar (str.to_re "hajoxzbuvy") (re.* re.allchar) (str.to_re "r") (re.* re.allchar) (re.* re.allchar) (str.to_re "wwmbfqctdsdawluuzhtpdjiluxdxmouvydfaeyywriffktyzbmxztpqsw") re.allchar (str.to_re "prwl") re.allchar (str.to_re "nwcwajpobtiefgxuxou") (re.* re.allchar) (str.to_re "feuyisvycfxv") re.allchar (str.to_re "ylerkqvnsmdkvlrpjpqfksmqgjkk") re.allchar (str.to_re "fmbhnoaemeibqpfgwaogfdrrutexu") (re.* re.allchar) (str.to_re "tvvikvoyibc") (re.* re.allchar) (str.to_re "pda") (re.* re.allchar) re.allchar (str.to_re "xfyd") (re.* re.allchar) (str.to_re "yeqebybdjgxpfnxhsxhhsto") (re.* re.allchar) (str.to_re "pyrbgbmgadmtuaumbtishcuidifbnexwwnalu") re.allchar (str.to_re "ifn") (re.* re.allchar) (str.to_re "fjtrjgj") re.allchar (str.to_re "oxuydqdumezrkmxygoodxbfhdvcirthhawocipue") re.allchar (re.* re.allchar) (str.to_re "eehqwcrgbyqhilrjdwptjzgismlupuzbkgmu") (re.* re.allchar) (str.to_re "vef") re.allchar (str.to_re "nmpojojw") re.allchar (str.to_re "hggdoevnwghdpzemmycogvqlshpajjwfyewcxngzhpygrmgvzrhxtxaerigitoqewkrwuhr") re.allchar (str.to_re "ucipmlgteguabqkiziusmsstxoupooioohhjcckzicjpnhe") re.allchar (str.to_re "wxdhe") (re.* re.allchar) (str.to_re "dqeozpi") (re.* re.allchar) (str.to_re "rhvpq") re.allchar (str.to_re "rbnzeogwcibnisxnyd") re.allchar (re.* re.allchar) (str.to_re "jyqifoa") re.allchar (str.to_re "hdunldcwtfskmmuyalppldgi") (re.* re.allchar) (str.to_re "ey") (re.* re.allchar) (str.to_re "rtjvrafxgt") (re.* re.allchar) (str.to_re "gkahxc") (re.* re.allchar) (str.to_re "kaizy") (re.* re.allchar) (str.to_re "chg") re.allchar (str.to_re "jcjj") re.allchar (str.to_re "secmeh") re.allchar (str.to_re "mnmckhklrfrpp") re.allchar (str.to_re "ovoxpj") (re.* re.allchar) (str.to_re "x") re.allchar (str.to_re "f") (re.* re.allchar) (str.to_re "a") (re.* re.allchar) (str.to_re "jspft") re.allchar (str.to_re "cq") re.allchar (str.to_re "lvaezvuteieiyacs") (re.* re.allchar) (str.to_re "bhricjhqljrsftpquglhtlhw") (re.* re.allchar) (str.to_re "fiqoclerzcpwfkhlwwvmrtf") (re.* re.allchar) (str.to_re "foozfoh") re.allchar (str.to_re "wzggxyylzfhgwc") re.allchar (str.to_re "xwcpexqsmlem") (re.* re.allchar) (str.to_re "f") re.allchar (str.to_re "fpujww") re.allchar (str.to_re "mcrlausc") (re.* re.allchar) (str.to_re "bopd") (re.* re.allchar) (str.to_re "cezxfvotnkl") (re.* re.allchar) re.allchar (str.to_re "hn") re.allchar (str.to_re "gu") re.allchar (str.to_re "xkfvjwdhhce") re.allchar (str.to_re "cn") (re.* re.allchar) (re.* re.allchar) (str.to_re "gvwuz") re.allchar (str.to_re "skpvftowylvgksbqlf") (re.* re.allchar) (str.to_re "l") re.allchar (str.to_re "wcedzqhhtmyvy") (re.* re.allchar) (re.* re.allchar) (str.to_re "eq") re.allchar (str.to_re "yq") (re.* re.allchar) (str.to_re "xiwcpavyjdu") (re.* re.allchar) (str.to_re "zbcfkbjpkrra") (re.* re.allchar) (str.to_re "lapa") (re.* re.allchar) (str.to_re "cegwhvmunudztpzzrqvlwyvx") (re.* re.allchar) (str.to_re "liagskiikxmurmvhxvo") re.allchar (str.to_re "t") re.allchar (str.to_re "u") (re.* re.allchar) (str.to_re "u") re.allchar (str.to_re "gwwrsclxvckanucmdxcouyjrycqokdcsqxskhhwohjybb") re.allchar (str.to_re "kia") (re.* re.allchar) (str.to_re "izkuvivwrjdgwiisuvykyvs") (re.* re.allchar) (str.to_re "whzk") (re.* re.allchar) (str.to_re "x") re.allchar (str.to_re "uhhcubtkgbzaaqiibrvddqctytykcysulkofyxx") (re.* re.allchar) (str.to_re "jktjgfzkvisnnwmpleeo") re.allchar re.allchar (str.to_re "oosnscmhzafxplbvrxtu") re.allchar (str.to_re "bkfndnkuzuhbx") re.allchar (str.to_re "zur") re.allchar (str.to_re "sihvtweaky") re.allchar (str.to_re "dti") re.allchar (str.to_re "ymhowx") (re.* re.allchar) (str.to_re "jb") (re.* re.allchar) (str.to_re "qnwmck") re.allchar (str.to_re "mnvlkxpzl") (re.* re.allchar) (str.to_re "gqovrzusuxltaicua") re.allchar (str.to_re "rfe") (re.* re.allchar) (str.to_re "fmlxyvepjjsolsqrbkznkie") (re.* re.allchar) (str.to_re "reiconhmldxyuozqwuqsnptd") re.allchar (str.to_re "cvajixvllqcxivm") (re.* re.allchar) (str.to_re "wktjsakfafrnjuaneyyytyfnrcqkbcnlzetsgsktjaxiso") (re.* re.allchar) (str.to_re "awprymlxx") re.allchar (str.to_re "v") re.allchar (str.to_re "ixp") re.allchar (str.to_re "pqs") re.allchar (str.to_re "rzgtrmcfjzcjnhtqnpvlmksga") (re.* re.allchar) (str.to_re "mlbxaqexo") re.allchar (str.to_re "phuriuoirhfqzpfllcl") (re.* re.allchar) (str.to_re "alyamioiznofuteqssxbpemxlxbhnasdalaauziwhomqamw") (re.* re.allchar) (str.to_re "mi") (re.* re.allchar) (str.to_re "rdxvohjchifqhtdvwahjdrsgxlbk") (re.* re.allchar) (str.to_re "qwzoqdgwjcjexgiqsmutllwk") (re.* re.allchar) (str.to_re "yq") (re.* re.allchar) (str.to_re "svjubcbscnxhoyvivclwyzfzszdrqfopvvizr") (re.* re.allchar) (str.to_re "p") (re.* re.allchar) (str.to_re "fszcmmn") re.allchar (str.to_re "supjjav") re.allchar (str.to_re "ylozjy") (re.* re.allchar) (str.to_re "hnsreeozbfzvwbolkyntffeptjkvfhetsrtdzojrcoqjro") (re.* re.allchar) (str.to_re "sxaj") re.allchar (str.to_re "fjgflpehhbw") (re.* re.allchar) (str.to_re "vvprgjnvockpkkvvybj") (re.* re.allchar) (str.to_re "jibeidajmjoxpddkepqt") re.allchar (str.to_re "wbpdxaluhpsifmqevmyswccvmswgebzwikjaymunqjcegzlwjuynrdvc") (re.* re.allchar) (str.to_re "yagzulocldihdyk") re.allchar (str.to_re "lkdehezxonca") re.allchar (str.to_re "rkulmccjbdzkfl") re.allchar (str.to_re "fql") re.allchar (str.to_re "qjpnghphmcqeqprrx") re.allchar (str.to_re "ish") (re.* re.allchar) (str.to_re "qymihxyxfseyrfmxmevnsf") re.allchar (str.to_re "cowaksbjvprob") re.allchar (str.to_re "lsmntjeohcppo") (re.* re.allchar) (str.to_re "oceqgkjd") (re.* re.allchar) (re.* re.allchar) (str.to_re "ovflzvcoiqyiciaqzqcqulu") (re.* re.allchar) (str.to_re "hvguqkpxrvkzfnzz") )   (re.++ (str.to_re "l") (re.* re.allchar) (str.to_re "ozswlyhkopg") (re.* re.allchar) (str.to_re "baejzwaf") re.allchar (str.to_re "tepydgi") re.allchar (str.to_re "leparjxcvtqjqchewmabumoy") re.allchar (str.to_re "osbeogpwsigqvtk") (re.* re.allchar) (str.to_re "ymnpoieqaqkxcfhjwyvrzmqlch") re.allchar (str.to_re "zaofgicwjzxetluu") re.allchar (str.to_re "hsycxlavgdqd") (re.* re.allchar) (str.to_re "msm") re.allchar (str.to_re "rwioevrobdiwanydjgzdves") re.allchar (str.to_re "bajxtlwpqv") (re.* re.allchar) (str.to_re "zadssam") re.allchar (str.to_re "wjkwlshwecoycuhvhmwetf") (re.* re.allchar) (str.to_re "qmhp") (re.* re.allchar) (str.to_re "fiaxeoazz") (re.* re.allchar) (str.to_re "gxbidrcffxwtfrqwbfdt") (re.* re.allchar) (str.to_re "fqemuduvtg") (re.* re.allchar) (str.to_re "yehft") re.allchar (str.to_re "eq") (re.* re.allchar) (str.to_re "xv") (re.* re.allchar) (str.to_re "mfzskvzxgobmpyhelhnfcsosdrqeosb") (re.* re.allchar) (str.to_re "jejq") re.allchar (str.to_re "kklgyycfevxintbdajshbfgppwowplbfnjctktgkjh") re.allchar (str.to_re "xlbkznnhy") re.allchar (str.to_re "yzsdp") re.allchar (str.to_re "nirpiwlelbkxifulpwbwxmvvhlcjybtyjvtbnkwev") re.allchar (str.to_re "uidbcjyvto") (re.* re.allchar) (str.to_re "nfvtxihvyzasz") (re.* re.allchar) (str.to_re "cftcqbeyldbxwmjjy") re.allchar (str.to_re "m") (re.* re.allchar) (str.to_re "fybyzcorp") (re.* re.allchar) (str.to_re "oycgljpdmnhlpuhgaggqhuwu") re.allchar (str.to_re "farfng") re.allchar (str.to_re "rerlluqsuas") (re.* re.allchar) (str.to_re "ptfsiivogilscolsbpfibwqvqtqoy") re.allchar (str.to_re "y") (re.* re.allchar) (str.to_re "flprfc") (re.* re.allchar) (str.to_re "heyregfsxjqoomiqxnnpa") re.allchar (str.to_re "fhbddrdapzmrkjuvmogcdawhqr") (re.* re.allchar) (str.to_re "olylfujwjwyvcegcjtnlxrzwkbrmlufkzptralur") re.allchar re.allchar (str.to_re "nwabfdn") re.allchar (str.to_re "jdus") (re.* re.allchar) (str.to_re "nmnusmtahlpcpqhdbjhp") re.allchar (str.to_re "kgmeycnllvragfearvxxzfpmervogrmie") (re.* re.allchar) (str.to_re "xusdhcpx") (re.* re.allchar) (str.to_re "kmucrpgflxpysjf") re.allchar (str.to_re "nnracnyuvfcbrp") re.allchar (str.to_re "syfalyjawljrrbmrmpypsqjbnlvhpfdjlcsondjffrvhlmbevyi") (re.* re.allchar) (str.to_re "eqcpzxshniccbifz") re.allchar (str.to_re "ybzziw") (re.* re.allchar) (str.to_re "oage") (re.* re.allchar) (str.to_re "dod") (re.* re.allchar) (str.to_re "gsibfstxbadlbi") re.allchar (str.to_re "vjqmpmbxwmavgigpmh") (re.* re.allchar) (str.to_re "kgrnxh") re.allchar (str.to_re "hncchciirltldbvstbsicacher") (re.* re.allchar) (str.to_re "qgzsuavljwybieabaepppfyfbsccl") re.allchar (str.to_re "afrmfrz") (re.* re.allchar) (str.to_re "k") (re.* re.allchar) (str.to_re "ptxkqtbpblsqdzf") (re.* re.allchar) (str.to_re "rilnqjopuymgxtebgcmtvqgfrelvehnfbrwqkgx") re.allchar (str.to_re "t") (re.* re.allchar) (str.to_re "jgigpirbkkfoxsdolvoghrniwzvurcwsylvei") re.allchar (str.to_re "dey") (re.* re.allchar) (str.to_re "eegehfikgzszsklfumqlbsxoexckqe") re.allchar (str.to_re "ykymsxldzrc") (re.* re.allchar) (str.to_re "jxadgsqzbnpciff") (re.* re.allchar) (str.to_re "oylxlnifnam") re.allchar (str.to_re "obpjpbshsujglezzwveg") (re.* re.allchar) re.allchar (str.to_re "wpoggctgr") re.allchar (str.to_re "eepdssrrxutbl") re.allchar (str.to_re "rvyjv") re.allchar re.allchar (str.to_re "vjaal") (re.* re.allchar) (str.to_re "q") (re.* re.allchar) (re.* re.allchar) (str.to_re "dvk") (re.* re.allchar) (str.to_re "tqtpizmgqila") (re.* re.allchar) (str.to_re "dzvuvrikguxidvkp") re.allchar (re.* re.allchar) (str.to_re "yqwyfzr") (re.* re.allchar) (str.to_re "foxhnvrvsgxjsfxsgfte") (re.* re.allchar) (str.to_re "ymofeswsizrpremwoflsfibyvqdzmhhsivrlwkes") re.allchar (str.to_re "q") re.allchar (str.to_re "rzjuddczmkkjdufbseqgqua") re.allchar (str.to_re "dcc") re.allchar (str.to_re "vyqvirthjaurnuedqkvjmi") (re.* re.allchar) (str.to_re "sgg") (re.* re.allchar) (str.to_re "eitgcdvlttnstmt") re.allchar (str.to_re "sugbsafqwqzeqjbmzccklprsxwroriy") (re.* re.allchar) (str.to_re "yeommdqcktbux") (re.* re.allchar) (str.to_re "bpkji") re.allchar (str.to_re "cq") (re.* re.allchar) (str.to_re "n") re.allchar (str.to_re "qpxm") (re.* re.allchar) (str.to_re "cck") (re.* re.allchar) (str.to_re "ractyrqmoyjttuecgyf") (re.* re.allchar) (str.to_re "qfjsknsb") (re.* re.allchar) (str.to_re "qvpbadha") re.allchar (str.to_re "ozcqlqocobvhxhuojiywpvamlnvjlswsshcosudl") (re.* re.allchar) (str.to_re "vti") (re.* re.allchar) (str.to_re "mnvjikhmpnnpudnggibmmpezlmzw") re.allchar (str.to_re "p") (re.* re.allchar) (re.* re.allchar) (str.to_re "jcjwtpjdhdnxkaeahjhrk") re.allchar (str.to_re "mqyumdvqpg") re.allchar (str.to_re "whfauzyhp") (re.* re.allchar) (str.to_re "g") (re.* re.allchar) (str.to_re "jtgxffodvxbuvzvnyiwcdjewzk") (re.* re.allchar) (str.to_re "fpobggc") (re.* re.allchar) (str.to_re "pysngzhts") re.allchar (str.to_re "yedqdustgzdpgtqgxza") (re.* re.allchar) (str.to_re "vlalhmtoueoshdft") re.allchar (str.to_re "hzo") re.allchar (str.to_re "re") (re.* re.allchar) (str.to_re "zpmhrevnnh") re.allchar (str.to_re "hvseqycbsgadmmvsjbvhzlfdzpolmaobpaw") (re.* re.allchar) (str.to_re "ghfl") re.allchar (str.to_re "kuslyhbgow") re.allchar re.allchar re.allchar (str.to_re "yjzauumbakaumtanbjh") (re.* re.allchar) (str.to_re "q") (re.* re.allchar) re.allchar (str.to_re "uj") re.allchar (str.to_re "bqctowsigoicazuapjjfqknojpehbwljhwgcd") (re.* re.allchar) (str.to_re "gqeqjzy") (re.* re.allchar) (str.to_re "mquezpv") re.allchar (str.to_re "hrwqskecozphlelvbvtffhmow") (re.* re.allchar) (str.to_re "xhaqrm") re.allchar (str.to_re "fewcmgx") (re.* re.allchar) (str.to_re "ykojs") (re.* re.allchar) (str.to_re "eeimsydhyvxbrnzjrjmgsxyslbkbhsvwl") re.allchar (str.to_re "zejclytqmcwdluzcinsctzcuceeur") (re.* re.allchar) (str.to_re "acsbkq") (re.* re.allchar) (str.to_re "lerjb") (re.* re.allchar) (str.to_re "sq") (re.* re.allchar) (str.to_re "jzpwsinujooorvuuqtuvt") (re.* re.allchar) (str.to_re "wjh") re.allchar (str.to_re "ywmeptfqfqdnai") re.allchar (str.to_re "ckgzijqrohckkwhacllaaonyuavo") re.allchar (str.to_re "hhsfijuqcqyb") (re.* re.allchar) (str.to_re "opdyqbtrkcauqmb") re.allchar (str.to_re "vjpnisjsiftt") (re.* re.allchar) (str.to_re "lkfhi") (re.* re.allchar) (str.to_re "uyvczpsmee") re.allchar (str.to_re "vnv") (re.* re.allchar) (str.to_re "b") (re.* re.allchar) (str.to_re "wjpnupaobplfylhd") re.allchar (str.to_re "cgnrsvgqfkudisimagv") re.allchar (str.to_re "ukfemrichgf") (re.* re.allchar) (str.to_re "ecextzjayuitmwwwzwuts") re.allchar (str.to_re "oeofsd") re.allchar (str.to_re "akszhskfhutholyur") re.allchar (str.to_re "ubwjphysxuixaumr") (re.* re.allchar) (str.to_re "jpoorlnoiwo") (re.* re.allchar) (str.to_re "rjywgqmogn") re.allchar (str.to_re "heghqgxxo") (re.* re.allchar) (str.to_re "wiwlepuskrhogrmqyoyviqlcarkdntwrdq") (re.* re.allchar) (str.to_re "h") (re.* re.allchar) (str.to_re "ybjjgyhqxd") (re.* re.allchar) (str.to_re "oaoegqxrhfukpoqntzlpckdsyurqgcuaof") (re.* re.allchar) (str.to_re "kjz") (re.* re.allchar) (str.to_re "gmzoftrfngnruxnmwrdaypgwmbqbdvabjnmmpomfrtc") (re.* re.allchar) (str.to_re "fjbuhlo") re.allchar (str.to_re "hjcmzcuoafy") (re.* re.allchar) (str.to_re "mjzjkcpqlgzhqylpuc") re.allchar (str.to_re "wme") re.allchar (str.to_re "exmnrkqltn") re.allchar (str.to_re "cgwbg") re.allchar (str.to_re "svwnkrsgmsrfmlfuvaltgkw") re.allchar (str.to_re "mbupdbdfpc") re.allchar (re.* re.allchar) (str.to_re "sd") (re.* re.allchar) re.allchar (str.to_re "hiaj") (re.* re.allchar) (str.to_re "h") re.allchar (str.to_re "akanecetgldsp") re.allchar (str.to_re "tazmsvdvjowzpoeygulq") re.allchar (str.to_re "bnul") (re.* re.allchar) (str.to_re "ehg") re.allchar (str.to_re "oneojw") (re.* re.allchar) (re.* re.allchar) (str.to_re "gpemeusqxfeer") re.allchar (re.* re.allchar) (str.to_re "atcorqn") (re.* re.allchar) (str.to_re "mucooowcsshmdcu") re.allchar (str.to_re "rggiscedsvscliejaajelqclxtybylfnvlpd") re.allchar (str.to_re "rynvuhrntk") re.allchar (str.to_re "fqmgqxiqvktwhjvllajfblydjwlrv") (re.* re.allchar) (str.to_re "fyrhjxj") (re.* re.allchar) (str.to_re "pbzzcspyxzaautv") re.allchar (str.to_re "wyyld") re.allchar (str.to_re "qmmx") re.allchar (str.to_re "x") (re.* re.allchar) (str.to_re "vwzufrpyhquckcdwjplpxqwvjjptfjwmu") (re.* re.allchar) (str.to_re "gqpdfdpj") re.allchar re.allchar (str.to_re "bpoz") re.allchar (str.to_re "oulysikjguxsu") (re.* re.allchar) (str.to_re "djvibgyjunhkjrsputdpl") re.allchar (str.to_re "ssfly") (re.* re.allchar) (str.to_re "cwcpblvahanqlireewggg") (re.* re.allchar) (str.to_re "kh") re.allchar (str.to_re "lwylrnsbw") re.allchar (str.to_re "bysljqtmskdmmkzzhgcfhbbvpkbexovzanmnmha") (re.* re.allchar) (str.to_re "pesrqac") re.allchar (str.to_re "efdesjekt") (re.* re.allchar) (str.to_re "qqchtinrhugwptq") (re.* re.allchar) (str.to_re "qurvejhoargywbifguaugvbtc") (re.* re.allchar) (str.to_re "lnwzitcjaifmf") re.allchar (str.to_re "x") (re.* re.allchar) (str.to_re "hjhazlldklfgpevzbdktez") (re.* re.allchar) re.allchar (str.to_re "ebvva") re.allchar (str.to_re "qcvas") re.allchar (str.to_re "hrafchlyezjgsuupopqojt") (re.* re.allchar) (str.to_re "olyi") (re.* re.allchar) (str.to_re "pfpleybrqmbuexezzksgfcovfudyjykmvqd") (re.* re.allchar) (str.to_re "fnwvxwiolutshpigp") re.allchar (str.to_re "cs") (re.* re.allchar) (str.to_re "atwduzzmpdzwekr") (re.* re.allchar) (str.to_re "nltf") re.allchar (str.to_re "gjvighk") (re.* re.allchar) (str.to_re "hx") re.allchar (str.to_re "vs") (re.* re.allchar) (str.to_re "bqijnwrobehdrlriv") (re.* re.allchar) (str.to_re "np") (re.* re.allchar) (str.to_re "dcqpjvzbogxh") re.allchar (str.to_re "lfhjeemyzefi") (re.* re.allchar) (str.to_re "yp") re.allchar (str.to_re "wysppgyuqmwesax") re.allchar (str.to_re "avmvjzgipgxaagrkcqtldcdkcshccukryqxqyhbad") (re.* re.allchar) (str.to_re "yzflpk") (re.* re.allchar) (str.to_re "dvjveuchhlzieqbcvbwkubuiac") (re.* re.allchar) (str.to_re "bcbncmhymthbus") re.allchar (str.to_re "seertqcpsbhrf") re.allchar (str.to_re "xpsmigguxlwn") re.allchar (str.to_re "p") re.allchar (str.to_re "zouyivyrobmrc") (re.* re.allchar) (str.to_re "cdfwb") (re.* re.allchar) (str.to_re "jyautuc") (re.* re.allchar) (str.to_re "uyk") (re.* re.allchar) (str.to_re "fnnouvkrachbagb") (re.* re.allchar) (str.to_re "vmarvfwpmdrlye") re.allchar (str.to_re "rmcnib") (re.* re.allchar) (str.to_re "pveelbrdwxns") (re.* re.allchar) (str.to_re "wkbh") re.allchar (str.to_re "jbiltqcqwhwcjklvtotqcxpmhpxplp") re.allchar (str.to_re "qpjjttkdnlx") re.allchar (str.to_re "sjroywishpongly") (re.* re.allchar) (str.to_re "imajdqi") re.allchar (str.to_re "clxb") re.allchar (re.* re.allchar) (str.to_re "ikcclod") re.allchar (str.to_re "zxuqp") (re.* re.allchar) (str.to_re "qwmlpmhxcgauonux") re.allchar (str.to_re "hdgwoiqbptkzmlbxwjqowfmmybazoyhow") (re.* re.allchar) (str.to_re "lxjepucss") re.allchar (str.to_re "pnbdorpybbs") (re.* re.allchar) (str.to_re "pf") (re.* re.allchar) (str.to_re "cckavdfqygdmfjtixf") (re.* re.allchar) (str.to_re "modye") (re.* re.allchar) (str.to_re "rjkshzteccjavbfxietvfnlvfvxozwewjy") re.allchar (str.to_re "azfrewk") re.allchar (str.to_re "mmyaiidzdvdnavemqe") (re.* re.allchar) (str.to_re "aixsuubm") re.allchar (str.to_re "t") re.allchar (str.to_re "mwh") re.allchar (str.to_re "abkrwh") re.allchar (str.to_re "xpndbkgeymwzuhcehurwdbjhebo") re.allchar (str.to_re "vyxhiy") re.allchar (str.to_re "kcmqhrudf") (re.* re.allchar) (str.to_re "itrsrm") (re.* re.allchar) (str.to_re "knzoly") (re.* re.allchar) (str.to_re "mdjkoxhslutogqnmzydrzjvfffwwwajpwpirmmtxobqn") (re.* re.allchar) (str.to_re "lbcqqjgvjmfa") re.allchar (str.to_re "nletakvebvngckto") re.allchar (str.to_re "fhxguazj") re.allchar (str.to_re "mdqfhxojyhbrlc") (re.* re.allchar) (str.to_re "xisff") (re.* re.allchar) (str.to_re "mgvcpicu") (re.* re.allchar) (str.to_re "itquc") re.allchar (str.to_re "l") (re.* re.allchar) (str.to_re "htrr") (re.* re.allchar) (str.to_re "bkvc") re.allchar (str.to_re "alpvlssunzjtxsdocqqfg") re.allchar (str.to_re "qfizqwihfbjznhnzf") re.allchar (str.to_re "fknetzdhygubuagcjczfjgogrdxvxybp") re.allchar (str.to_re "ll") (re.* re.allchar) (str.to_re "uivtmsezrqyih") (re.* re.allchar) (str.to_re "wdhksbndfnrhb") re.allchar (str.to_re "vqnchddfaqogzyotfq") (re.* re.allchar) (str.to_re "azndojl") re.allchar (str.to_re "aicfsfzvpiokuftnuwceiiflpygnlnplrhbikecpmxkxjvirwaozzhhrmtccsuckfpy") re.allchar (str.to_re "yeyp") re.allchar (str.to_re "dgpporwakrx") (re.* re.allchar) (str.to_re "gnqatdxxitetgjy") (re.* re.allchar) (str.to_re "yfdizajnmwjfao") re.allchar (str.to_re "dusjnfulzs") re.allchar (str.to_re "jtymweoi") (re.* re.allchar) (str.to_re "kbmvycjnngvglrccoxln") re.allchar (str.to_re "dtqhx") re.allchar (re.* re.allchar) (str.to_re "ljnqwlchwiphvetcxmezi") (re.* re.allchar) (str.to_re "ijkemdaapqy") re.allchar (str.to_re "zxeeg") re.allchar re.allchar (str.to_re "ghorsdaswkuhsidco") )  )))
(check-sat)
(exit)
